\ LP format - for model browsing. Use MPS format to capture full model detail.
Minimize
  C136(1)
Subject To
 c0: B0(13) + B1(13) + B2(15) = 1
 c1: B3(13) + B4(14) = 1
 c2: B5(12) + B6(13) = 1
 c3: B7(13) + B8(13) = 1
 c4: B9(13) + B10(14) = 1
 c5: B11(13) + B12(9) = 1
 c6: B13(12) + B14(14) = 1
 c7: B15(15) + B16(13) = 1
 c8: B17(12) + B18(13) + B19(9) = 1
 c9: B20(12) + B21(14) = 1
 c10: B22(14) = 1
 c11: B23(13) + B24(9) = 1
 c12: B25(15) + B26(13) + B27(13) = 1
 c13: B28(14) + B29(15) + B30(13) = 1
 c14: B31(12) + B32(9) = 1
 c15: - 1e+09 B0(13) + C103(13) <= 0
 c16: - 1e+09 B1(13) + C104(13) <= 0
 c17: - 1e+09 B2(15) + C105(15) <= 0
 c18: - 1e+09 B3(13) + C106(15) <= 0
 c19: - 1e+09 B4(14) + C107(15) <= 0
 c20: - 1e+09 B5(12) + C108(13) <= 0
 c21: - 1e+09 B6(13) + C109(15) <= 0
 c22: - 1e+09 B7(13) + C110(13) <= 0
 c23: - 1e+09 B8(13) + C111(13) <= 0
 c24: - 1e+09 B9(13) + C112(14) <= 0
 c25: - 1e+09 B10(14) + C113(16) <= 0
 c26: - 1e+09 B11(13) + C114(14) <= 0
 c27: - 1e+09 B12(9) + C115(10) <= 0
 c28: - 1e+09 B13(12) + C116(12) <= 0
 c29: - 1e+09 B14(14) + C117(14) <= 0
 c30: - 1e+09 B15(15) + C118(16) <= 0
 c31: - 1e+09 B16(13) + C119(14) <= 0
 c32: - 1e+09 B17(12) + C120(13) <= 0
 c33: - 1e+09 B18(13) + C121(15) <= 0
 c34: - 1e+09 B19(9) + C122(11) <= 0
 c35: - 1e+09 B20(12) + C123(12) <= 0
 c36: - 1e+09 B21(14) + C124(14) <= 0
 c37: - 1e+09 B22(14) + C125(15) <= 0
 c38: - 1e+09 B23(13) + C126(14) <= 0
 c39: - 1e+09 B24(9) + C127(10) <= 0
 c40: - 1e+09 B25(15) + C128(15) <= 0
 c41: - 1e+09 B26(13) + C129(13) <= 0
 c42: - 1e+09 B27(13) + C130(13) <= 0
 c43: - 1e+09 B28(14) + C131(15) <= 0
 c44: - 1e+09 B29(15) + C132(17) <= 0
 c45: - 1e+09 B30(13) + C133(15) <= 0
 c46: - 1e+09 B31(12) + C134(13) <= 0
 c47: - 1e+09 B32(9) + C135(11) <= 0
 c48: - 147 B0(13) - 123 B1(13) - 145 B2(15) - C103(13) - C104(13)
   - C105(15) + C106(15) + C107(15) >= 0
 c49: - 147 B0(13) - 1.000000123e+09 B1(13) - 145 B2(15) - 1e+09 B4(14)
   - C103(13) - C104(13) - C105(15) + C106(15) + C107(15)
   >= -1.999999991e+09
 c50: - 140 B3(13) - 130 B4(14) - C106(15) - C107(15) + C108(13) + C109(15)
   >= 0
 c51: - 1.00000014e+09 B3(13) - 130 B4(14) - 1e+09 B5(12) - C106(15)
   - C107(15) + C108(13) + C109(15) >= -1.999999986e+09
 c52: - 214 B7(13) - 150 B8(13) - C110(13) - C111(13) + C112(14) + C113(16)
   >= 0
 c53: - 214 B7(13) - 1.00000015e+09 B8(13) - 1e+09 B9(13) - C110(13)
   - C111(13) + C112(14) + C113(16) >= -1.999999988e+09
 c54: - 87 B9(13) - 66 B10(14) - C112(14) - C113(16) + C114(14) + C115(10)
   >= 0
 c55: - 87 B13(12) - 62 B14(14) - C116(12) - C117(14) + C118(16) + C119(14)
   >= 0
 c56: - 180 B15(15) - 105 B16(13) - C118(16) - C119(14) + C120(13)
   + C121(15) + C122(11) >= 0
 c57: - 180 B15(15) - 1.000000105e+09 B16(13) - 1e+09 B17(12) - C118(16)
   - C119(14) + C120(13) + C121(15) + C122(11) >= -1.999999988e+09
 c58: - 87 B20(12) - 65 B21(14) - C123(12) - C124(14) + C125(15) >= 0
 c59: - 173 B22(14) - C125(15) + C126(14) + C127(10) >= 0
 c60: - 123 B25(15) - 145 B26(13) - 128 B27(13) - C128(15) - C129(13)
   - C130(13) + C131(15) + C132(17) + C133(15) >= 0
 c61: - 123 B25(15) - 1.000000145e+09 B26(13) - 128 B27(13) - 1e+09 B28(14)
   - C128(15) - C129(13) - C130(13) + C131(15) + C132(17) + C133(15)
   >= -1.999999991e+09
 c62: - 86 B28(14) - 65 B29(15) - 47 B30(13) - C131(15) - C132(17)
   - C133(15) + C134(13) + C135(11) >= 0
 c63: - 86 B28(14) - 65 B29(15) - 1.000000047e+09 B30(13) - 1e+09 B31(12)
   - C131(15) - C132(17) - C133(15) + C134(13) + C135(11)
   >= -1.999999988e+09
 c64: - 1e+09 B0(13) - 1e+09 B7(13) - 1e+09 B33(2) + C103(13) - C110(13)
   >= -2.999999771e+09
 c65: - 1e+09 B0(13) - 1e+09 B7(13) + 1e+09 B33(2) - C103(13) + C110(13)
   >= -1.999999842e+09
 c66: - 1e+09 B2(15) - 1e+09 B8(13) - 1e+09 B34(2) + C105(15) - C111(13)
   >= -2.999999839e+09
 c67: - 1e+09 B2(15) - 1e+09 B8(13) + 1e+09 B34(2) - C105(15) + C111(13)
   >= -1.999999845e+09
 c68: - 1e+09 B1(13) - 1e+09 B10(14) - 1e+09 B35(2) + C104(13) - C113(16)
   >= -2.999999923e+09
 c69: - 1e+09 B1(13) - 1e+09 B10(14) + 1e+09 B35(2) - C104(13) + C113(16)
   >= -1.999999862e+09
 c70: - 1e+09 B2(15) - 1e+09 B9(13) - 1e+09 B36(2) + C105(15) - C112(14)
   >= -2.999999903e+09
 c71: - 1e+09 B2(15) - 1e+09 B9(13) + 1e+09 B36(2) - C105(15) + C112(14)
   >= -1.999999842e+09
 c72: - 1e+09 B0(13) - 1e+09 B13(12) - 1e+09 B37(2) + C103(13) - C116(12)
   >= -2.999999901e+09
 c73: - 1e+09 B0(13) - 1e+09 B13(12) + 1e+09 B37(2) - C103(13) + C116(12)
   >= -1.999999841e+09
 c74: - 1e+09 B1(13) - 1e+09 B14(14) - 1e+09 B38(2) + C104(13) - C117(14)
   >= -2.999999925e+09
 c75: - 1e+09 B1(13) - 1e+09 B14(14) + 1e+09 B38(2) - C104(13) + C117(14)
   >= -1.999999864e+09
 c76: - 1e+09 B2(15) - 1e+09 B15(15) - 1e+09 B39(2) + C105(15) - C118(16)
   >= -2.999999804e+09
 c77: - 1e+09 B2(15) - 1e+09 B15(15) + 1e+09 B39(2) - C105(15) + C118(16)
   >= -1.99999984e+09
 c78: - 1e+09 B0(13) - 1e+09 B20(12) - 1e+09 B40(2) + C103(13) - C123(12)
   >= -2.999999902e+09
 c79: - 1e+09 B0(13) - 1e+09 B20(12) + 1e+09 B40(2) - C103(13) + C123(12)
   >= -1.999999841e+09
 c80: - 1e+09 B1(13) - 1e+09 B21(14) - 1e+09 B41(2) + C104(13) - C124(14)
   >= -2.999999921e+09
 c81: - 1e+09 B1(13) - 1e+09 B21(14) + 1e+09 B41(2) - C104(13) + C124(14)
   >= -1.999999863e+09
 c82: - 1e+09 B0(13) - 1e+09 B27(13) - 1e+09 B42(2) + C103(13) - C130(13)
   >= -2.999999861e+09
 c83: - 1e+09 B0(13) - 1e+09 B27(13) + 1e+09 B42(2) - C103(13) + C130(13)
   >= -1.999999841e+09
 c84: - 1e+09 B1(13) - 1e+09 B25(15) - 1e+09 B43(2) + C104(13) - C128(15)
   >= -2.999999867e+09
 c85: - 1e+09 B1(13) - 1e+09 B25(15) + 1e+09 B43(2) - C104(13) + C128(15)
   >= -1.999999869e+09
 c86: - 1e+09 B2(15) - 1e+09 B26(13) - 1e+09 B44(2) + C105(15) - C129(13)
   >= -2.999999842e+09
 c87: - 1e+09 B2(15) - 1e+09 B26(13) + 1e+09 B44(2) - C105(15) + C129(13)
   >= -1.999999843e+09
 c88: - 1e+09 B2(15) - 1e+09 B28(14) - 1e+09 B45(2) + C105(15) - C131(15)
   >= -2.9999999e+09
 c89: - 1e+09 B2(15) - 1e+09 B28(14) + 1e+09 B45(2) - C105(15) + C131(15)
   >= -1.999999842e+09
 c90: - 1e+09 B4(14) - 1e+09 B10(14) - 1e+09 B46(2) + C107(15) - C113(16)
   >= -2.999999918e+09
 c91: - 1e+09 B4(14) - 1e+09 B10(14) + 1e+09 B46(2) - C107(15) + C113(16)
   >= -1.999999858e+09
 c92: - 1e+09 B4(14) - 1e+09 B14(14) - 1e+09 B47(2) + C107(15) - C117(14)
   >= -2.99999993e+09
 c93: - 1e+09 B4(14) - 1e+09 B14(14) + 1e+09 B47(2) - C107(15) + C117(14)
   >= -1.999999861e+09
 c94: - 1e+09 B3(13) - 1e+09 B16(13) - 1e+09 B48(2) + C106(15) - C119(14)
   >= -2.99999988e+09
 c95: - 1e+09 B3(13) - 1e+09 B16(13) + 1e+09 B48(2) - C106(15) + C119(14)
   >= -1.999999847e+09
 c96: - 1e+09 B3(13) - 1e+09 B17(12) - 1e+09 B49(2) + C106(15) - C120(13)
   >= -2.999999799e+09
 c97: - 1e+09 B3(13) - 1e+09 B17(12) + 1e+09 B49(2) - C106(15) + C120(13)
   >= -1.999999849e+09
 c98: - 1e+09 B4(14) - 1e+09 B21(14) - 1e+09 B50(2) + C107(15) - C124(14)
   >= -2.999999921e+09
 c99: - 1e+09 B4(14) - 1e+09 B21(14) + 1e+09 B50(2) - C107(15) + C124(14)
   >= -1.999999857e+09
 c100: - 1e+09 B3(13) - 1e+09 B23(13) - 1e+09 B51(2) + C106(15) - C126(14)
   >= -2.999999841e+09
 c101: - 1e+09 B3(13) - 1e+09 B23(13) + 1e+09 B51(2) - C106(15) + C126(14)
   >= -1.999999846e+09
 c102: - 1e+09 B4(14) - 1e+09 B25(15) - 1e+09 B52(2) + C107(15) - C128(15)
   >= -2.999999862e+09
 c103: - 1e+09 B4(14) - 1e+09 B25(15) + 1e+09 B52(2) - C107(15) + C128(15)
   >= -1.999999861e+09
 c104: - 1e+09 B3(13) - 1e+09 B29(15) - 1e+09 B53(2) + C106(15) - C132(17)
   >= -2.999999924e+09
 c105: - 1e+09 B3(13) - 1e+09 B29(15) + 1e+09 B53(2) - C106(15) + C132(17)
   >= -1.999999845e+09
 c106: - 1e+09 B6(13) - 1e+09 B11(13) - 1e+09 B54(2) + C109(15) - C114(14)
   >= -2.999999807e+09
 c107: - 1e+09 B6(13) - 1e+09 B11(13) + 1e+09 B54(2) - C109(15) + C114(14)
   >= -1.999999829e+09
 c108: - 1e+09 B5(12) - 1e+09 B16(13) - 1e+09 B55(2) + C108(13) - C119(14)
   >= -2.999999879e+09
 c109: - 1e+09 B5(12) - 1e+09 B16(13) + 1e+09 B55(2) - C108(13) + C119(14)
   >= -1.999999839e+09
 c110: - 1e+09 B5(12) - 1e+09 B17(12) - 1e+09 B56(2) + C108(13) - C120(13)
   >= -2.999999797e+09
 c111: - 1e+09 B5(12) - 1e+09 B17(12) + 1e+09 B56(2) - C108(13) + C120(13)
   >= -1.999999835e+09
 c112: - 1e+09 B6(13) - 1e+09 B18(13) - 1e+09 B57(2) + C109(15) - C121(15)
   >= -2.999999889e+09
 c113: - 1e+09 B6(13) - 1e+09 B18(13) + 1e+09 B57(2) - C109(15) + C121(15)
   >= -1.999999828e+09
 c114: - 1e+09 B6(13) - 1e+09 B22(14) - 1e+09 B58(2) + C109(15) - C125(15)
   >= -2.999999815e+09
 c115: - 1e+09 B6(13) - 1e+09 B22(14) + 1e+09 B58(2) - C109(15) + C125(15)
   >= -1.99999983e+09
 c116: - 1e+09 B5(12) - 1e+09 B23(13) - 1e+09 B59(2) + C108(13) - C126(14)
   >= -2.999999847e+09
 c117: - 1e+09 B5(12) - 1e+09 B23(13) + 1e+09 B59(2) - C108(13) + C126(14)
   >= -1.999999837e+09
 c118: - 1e+09 B5(12) - 1e+09 B29(15) - 1e+09 B60(2) + C108(13) - C132(17)
   >= -2.999999924e+09
 c119: - 1e+09 B5(12) - 1e+09 B29(15) + 1e+09 B60(2) - C108(13) + C132(17)
   >= -1.999999837e+09
 c120: - 1e+09 B6(13) - 1e+09 B30(13) - 1e+09 B61(2) + C109(15) - C133(15)
   >= -2.999999944e+09
 c121: - 1e+09 B6(13) - 1e+09 B30(13) + 1e+09 B61(2) - C109(15) + C133(15)
   >= -1.999999828e+09
 c122: - 1e+09 B6(13) - 1e+09 B31(12) - 1e+09 B62(2) + C109(15) - C134(13)
   >= -2.999999877e+09
 c123: - 1e+09 B6(13) - 1e+09 B31(12) + 1e+09 B62(2) - C109(15) + C134(13)
   >= -1.999999829e+09
 c124: - 1e+09 B7(13) - 1e+09 B13(12) - 1e+09 B63(2) + C110(13) - C116(12)
   >= -2.999999903e+09
 c125: - 1e+09 B7(13) - 1e+09 B13(12) + 1e+09 B63(2) - C110(13) + C116(12)
   >= -1.999999777e+09
 c126: - 1e+09 B8(13) - 1e+09 B15(15) - 1e+09 B64(2) + C111(13) - C118(16)
   >= -2.999999811e+09
 c127: - 1e+09 B8(13) - 1e+09 B15(15) + 1e+09 B64(2) - C111(13) + C118(16)
   >= -1.999999836e+09
 c128: - 1e+09 B7(13) - 1e+09 B20(12) - 1e+09 B65(2) + C110(13) - C123(12)
   >= -2.999999901e+09
 c129: - 1e+09 B7(13) - 1e+09 B20(12) + 1e+09 B65(2) - C110(13) + C123(12)
   >= -1.999999772e+09
 c130: - 1e+09 B7(13) - 1e+09 B27(13) - 1e+09 B66(2) + C110(13) - C130(13)
   >= -2.99999986e+09
 c131: - 1e+09 B7(13) - 1e+09 B27(13) + 1e+09 B66(2) - C110(13) + C130(13)
   >= -1.999999777e+09
 c132: - 1e+09 B8(13) - 1e+09 B26(13) - 1e+09 B67(2) + C111(13) - C129(13)
   >= -2.999999846e+09
 c133: - 1e+09 B8(13) - 1e+09 B26(13) + 1e+09 B67(2) - C111(13) + C129(13)
   >= -1.999999835e+09
 c134: - 1e+09 B8(13) - 1e+09 B28(14) - 1e+09 B68(2) + C111(13) - C131(15)
   >= -2.999999903e+09
 c135: - 1e+09 B8(13) - 1e+09 B28(14) + 1e+09 B68(2) - C111(13) + C131(15)
   >= -1.999999839e+09
 c136: - 1e+09 B10(14) - 1e+09 B14(14) - 1e+09 B69(2) + C113(16) - C117(14)
   >= -2.999999926e+09
 c137: - 1e+09 B10(14) - 1e+09 B14(14) + 1e+09 B69(2) - C113(16) + C117(14)
   >= -1.999999919e+09
 c138: - 1e+09 B9(13) - 1e+09 B15(15) - 1e+09 B70(2) + C112(14) - C118(16)
   >= -2.999999806e+09
 c139: - 1e+09 B9(13) - 1e+09 B15(15) + 1e+09 B70(2) - C112(14) + C118(16)
   >= -1.999999901e+09
 c140: - 1e+09 B10(14) - 1e+09 B21(14) - 1e+09 B71(2) + C113(16) - C124(14)
   >= -2.999999921e+09
 c141: - 1e+09 B10(14) - 1e+09 B21(14) + 1e+09 B71(2) - C113(16) + C124(14)
   >= -1.99999992e+09
 c142: - 1e+09 B10(14) - 1e+09 B25(15) - 1e+09 B72(2) + C113(16) - C128(15)
   >= -2.999999867e+09
 c143: - 1e+09 B10(14) - 1e+09 B25(15) + 1e+09 B72(2) - C113(16) + C128(15)
   >= -1.99999992e+09
 c144: - 1e+09 B9(13) - 1e+09 B26(13) - 1e+09 B73(2) + C112(14) - C129(13)
   >= -2.999999842e+09
 c145: - 1e+09 B9(13) - 1e+09 B26(13) + 1e+09 B73(2) - C112(14) + C129(13)
   >= -1.999999902e+09
 c146: - 1e+09 B9(13) - 1e+09 B28(14) - 1e+09 B74(2) + C112(14) - C131(15)
   >= -2.999999902e+09
 c147: - 1e+09 B9(13) - 1e+09 B28(14) + 1e+09 B74(2) - C112(14) + C131(15)
   >= -1.999999899e+09
 c148: - 1e+09 B11(13) - 1e+09 B18(13) - 1e+09 B75(2) + C114(14) - C121(15)
   >= -2.999999888e+09
 c149: - 1e+09 B11(13) - 1e+09 B18(13) + 1e+09 B75(2) - C114(14) + C121(15)
   >= -1.999999808e+09
 c150: - 1e+09 B12(9) - 1e+09 B19(9) - 1e+09 B76(2) + C115(10) - C122(11)
   >= -2.999999838e+09
 c151: - 1e+09 B12(9) - 1e+09 B19(9) + 1e+09 B76(2) - C115(10) + C122(11)
   >= -1.999999893e+09
 c152: - 1e+09 B11(13) - 1e+09 B22(14) - 1e+09 B77(2) + C114(14) - C125(15)
   >= -2.999999813e+09
 c153: - 1e+09 B11(13) - 1e+09 B22(14) + 1e+09 B77(2) - C114(14) + C125(15)
   >= -1.999999807e+09
 c154: - 1e+09 B12(9) - 1e+09 B24(9) - 1e+09 B78(2) + C115(10) - C127(10)
   >= -2.999999851e+09
 c155: - 1e+09 B12(9) - 1e+09 B24(9) + 1e+09 B78(2) - C115(10) + C127(10)
   >= -1.999999891e+09
 c156: - 1e+09 B11(13) - 1e+09 B30(13) - 1e+09 B79(2) + C114(14) - C133(15)
   >= -2.999999941e+09
 c157: - 1e+09 B11(13) - 1e+09 B30(13) + 1e+09 B79(2) - C114(14) + C133(15)
   >= -1.999999808e+09
 c158: - 1e+09 B11(13) - 1e+09 B31(12) - 1e+09 B80(2) + C114(14) - C134(13)
   >= -2.999999882e+09
 c159: - 1e+09 B11(13) - 1e+09 B31(12) + 1e+09 B80(2) - C114(14) + C134(13)
   >= -1.999999812e+09
 c160: - 1e+09 B12(9) - 1e+09 B32(9) - 1e+09 B81(2) + C115(10) - C135(11)
   >= -2.999999904e+09
 c161: - 1e+09 B12(9) - 1e+09 B32(9) + 1e+09 B81(2) - C115(10) + C135(11)
   >= -1.999999892e+09
 c162: - 1e+09 B13(12) - 1e+09 B20(12) - 1e+09 B82(2) + C116(12) - C123(12)
   >= -2.999999898e+09
 c163: - 1e+09 B13(12) - 1e+09 B20(12) + 1e+09 B82(2) - C116(12) + C123(12)
   >= -1.999999902e+09
 c164: - 1e+09 B14(14) - 1e+09 B21(14) - 1e+09 B83(2) + C117(14) - C124(14)
   >= -2.99999992e+09
 c165: - 1e+09 B14(14) - 1e+09 B21(14) + 1e+09 B83(2) - C117(14) + C124(14)
   >= -1.999999928e+09
 c166: - 1e+09 B13(12) - 1e+09 B27(13) - 1e+09 B84(2) + C116(12) - C130(13)
   >= -2.999999859e+09
 c167: - 1e+09 B13(12) - 1e+09 B27(13) + 1e+09 B84(2) - C116(12) + C130(13)
   >= -1.9999999e+09
 c168: - 1e+09 B14(14) - 1e+09 B25(15) - 1e+09 B85(2) + C117(14) - C128(15)
   >= -2.999999868e+09
 c169: - 1e+09 B14(14) - 1e+09 B25(15) + 1e+09 B85(2) - C117(14) + C128(15)
   >= -1.999999927e+09
 c170: - 1e+09 B16(13) - 1e+09 B23(13) - 1e+09 B86(2) + C119(14) - C126(14)
   >= -2.999999842e+09
 c171: - 1e+09 B16(13) - 1e+09 B23(13) + 1e+09 B86(2) - C119(14) + C126(14)
   >= -1.999999886e+09
 c172: - 1e+09 B15(15) - 1e+09 B26(13) - 1e+09 B87(2) + C118(16) - C129(13)
   >= -2.999999845e+09
 c173: - 1e+09 B15(15) - 1e+09 B26(13) + 1e+09 B87(2) - C118(16) + C129(13)
   >= -1.999999808e+09
 c174: - 1e+09 B15(15) - 1e+09 B28(14) - 1e+09 B88(2) + C118(16) - C131(15)
   >= -2.999999903e+09
 c175: - 1e+09 B15(15) - 1e+09 B28(14) + 1e+09 B88(2) - C118(16) + C131(15)
   >= -1.999999809e+09
 c176: - 1e+09 B16(13) - 1e+09 B29(15) - 1e+09 B89(2) + C119(14) - C132(17)
   >= -2.99999992e+09
 c177: - 1e+09 B16(13) - 1e+09 B29(15) + 1e+09 B89(2) - C119(14) + C132(17)
   >= -1.999999885e+09
 c178: - 1e+09 B18(13) - 1e+09 B22(14) - 1e+09 B90(2) + C121(15) - C125(15)
   >= -2.999999818e+09
 c179: - 1e+09 B18(13) - 1e+09 B22(14) + 1e+09 B90(2) - C121(15) + C125(15)
   >= -1.999999887e+09
 c180: - 1e+09 B17(12) - 1e+09 B23(13) - 1e+09 B91(2) + C120(13) - C126(14)
   >= -2.999999843e+09
 c181: - 1e+09 B17(12) - 1e+09 B23(13) + 1e+09 B91(2) - C120(13) + C126(14)
   >= -1.999999798e+09
 c182: - 1e+09 B19(9) - 1e+09 B24(9) - 1e+09 B92(2) + C122(11) - C127(10)
   >= -2.999999854e+09
 c183: - 1e+09 B19(9) - 1e+09 B24(9) + 1e+09 B92(2) - C122(11) + C127(10)
   >= -1.999999836e+09
 c184: - 1e+09 B17(12) - 1e+09 B29(15) - 1e+09 B93(2) + C120(13) - C132(17)
   >= -2.999999924e+09
 c185: - 1e+09 B17(12) - 1e+09 B29(15) + 1e+09 B93(2) - C120(13) + C132(17)
   >= -1.9999998e+09
 c186: - 1e+09 B18(13) - 1e+09 B30(13) - 1e+09 B94(2) + C121(15) - C133(15)
   >= -2.999999944e+09
 c187: - 1e+09 B18(13) - 1e+09 B30(13) + 1e+09 B94(2) - C121(15) + C133(15)
   >= -1.99999989e+09
 c188: - 1e+09 B18(13) - 1e+09 B31(12) - 1e+09 B95(2) + C121(15) - C134(13)
   >= -2.999999875e+09
 c189: - 1e+09 B18(13) - 1e+09 B31(12) + 1e+09 B95(2) - C121(15) + C134(13)
   >= -1.999999888e+09
 c190: - 1e+09 B19(9) - 1e+09 B32(9) - 1e+09 B96(2) + C122(11) - C135(11)
   >= -2.999999903e+09
 c191: - 1e+09 B19(9) - 1e+09 B32(9) + 1e+09 B96(2) - C122(11) + C135(11)
   >= -1.999999836e+09
 c192: - 1e+09 B20(12) - 1e+09 B27(13) - 1e+09 B97(2) + C123(12) - C130(13)
   >= -2.999999863e+09
 c193: - 1e+09 B20(12) - 1e+09 B27(13) + 1e+09 B97(2) - C123(12) + C130(13)
   >= -1.9999999e+09
 c194: - 1e+09 B21(14) - 1e+09 B25(15) - 1e+09 B98(2) + C124(14) - C128(15)
   >= -2.999999866e+09
 c195: - 1e+09 B21(14) - 1e+09 B25(15) + 1e+09 B98(2) - C124(14) + C128(15)
   >= -1.999999923e+09
 c196: - 1e+09 B22(14) - 1e+09 B30(13) - 1e+09 B99(2) + C125(15) - C133(15)
   >= -2.99999994e+09
 c197: - 1e+09 B22(14) - 1e+09 B30(13) + 1e+09 B99(2) - C125(15) + C133(15)
   >= -1.999999815e+09
 c198: - 1e+09 B22(14) - 1e+09 B31(12) - 1e+09 B100(2) + C125(15)
   - C134(13) >= -2.999999878e+09
 c199: - 1e+09 B22(14) - 1e+09 B31(12) + 1e+09 B100(2) - C125(15)
   + C134(13) >= -1.999999815e+09
 c200: - 1e+09 B23(13) - 1e+09 B29(15) - 1e+09 B101(2) + C126(14)
   - C132(17) >= -2.999999924e+09
 c201: - 1e+09 B23(13) - 1e+09 B29(15) + 1e+09 B101(2) - C126(14)
   + C132(17) >= -1.999999843e+09
 c202: - 1e+09 B24(9) - 1e+09 B32(9) - 1e+09 B102(2) + C127(10) - C135(11)
   >= -2.999999903e+09
 c203: - 1e+09 B24(9) - 1e+09 B32(9) + 1e+09 B102(2) - C127(10) + C135(11)
   >= -1.999999852e+09
 c204: C103(13) >= 0
 c205: C104(13) >= 0
 c206: C105(15) >= 0
 c207: C106(15) >= 0
 c208: C107(15) >= 0
 c209: C108(13) >= 0
 c210: C109(15) >= 0
 c211: C110(13) >= 0
 c212: C111(13) >= 0
 c213: C112(14) >= 0
 c214: C113(16) >= 0
 c215: C114(14) >= 0
 c216: C115(10) >= 0
 c217: C116(12) >= 0
 c218: C117(14) >= 0
 c219: C118(16) >= 0
 c220: C119(14) >= 0
 c221: C120(13) >= 0
 c222: C121(15) >= 0
 c223: C122(11) >= 0
 c224: C123(12) >= 0
 c225: C124(14) >= 0
 c226: C125(15) >= 0
 c227: C126(14) >= 0
 c228: C127(10) >= 0
 c229: C128(15) >= 0
 c230: C129(13) >= 0
 c231: C130(13) >= 0
 c232: C131(15) >= 0
 c233: C132(17) >= 0
 c234: C133(15) >= 0
 c235: C134(13) >= 0
 c236: C135(11) >= 0
 c237: - 147 B0(13) - 123 B1(13) - 145 B2(15) - 140 B3(13) - 130 B4(14)
   - 150 B5(12) - 160 B6(13) - 214 B7(13) - 150 B8(13) - 87 B9(13)
   - 66 B10(14) - 178 B11(13) - 95 B12(9) - 87 B13(12) - 62 B14(14)
   - 180 B15(15) - 105 B16(13) - 190 B17(12) - 100 B18(13) - 153 B19(9)
   - 87 B20(12) - 65 B21(14) - 173 B22(14) - 145 B23(13) - 136 B24(9)
   - 123 B25(15) - 145 B26(13) - 128 B27(13) - 86 B28(14) - 65 B29(15)
   - 47 B30(13) - 110 B31(12) - 85 B32(9) - C103(13) - C104(13) - C105(15)
   - C106(15) - C107(15) - C108(13) - C109(15) - C110(13) - C111(13)
   - C112(14) - C113(16) - C114(14) - C115(10) - C116(12) - C117(14)
   - C118(16) - C119(14) - C120(13) - C121(15) - C122(11) - C123(12)
   - C124(14) - C125(15) - C126(14) - C127(10) - C128(15) - C129(13)
   - C130(13) - C131(15) - C132(17) - C133(15) - C134(13) - C135(11)
   + C136(1) = 0
Bounds
Binaries
 B0(13) B1(13) B2(15) B3(13) B4(14) B5(12) B6(13) B7(13) B8(13) B9(13)
 B10(14) B11(13) B12(9) B13(12) B14(14) B15(15) B16(13) B17(12) B18(13)
 B19(9) B20(12) B21(14) B22(14) B23(13) B24(9) B25(15) B26(13) B27(13)
 B28(14) B29(15) B30(13) B31(12) B32(9) B33(2) B34(2) B35(2) B36(2) B37(2)
 B38(2) B39(2) B40(2) B41(2) B42(2) B43(2) B44(2) B45(2) B46(2) B47(2)
 B48(2) B49(2) B50(2) B51(2) B52(2) B53(2) B54(2) B55(2) B56(2) B57(2)
 B58(2) B59(2) B60(2) B61(2) B62(2) B63(2) B64(2) B65(2) B66(2) B67(2)
 B68(2) B69(2) B70(2) B71(2) B72(2) B73(2) B74(2) B75(2) B76(2) B77(2)
 B78(2) B79(2) B80(2) B81(2) B82(2) B83(2) B84(2) B85(2) B86(2) B87(2)
 B88(2) B89(2) B90(2) B91(2) B92(2) B93(2) B94(2) B95(2) B96(2) B97(2)
 B98(2) B99(2) B100(2) B101(2) B102(2)
End
